<<<<<<< HEAD
<<<<<<< HEAD
NAME : single.2742.tour
COMMENT : Length = 2742
COMMENT : Found by LKH [Keld Helsgaun] Fri Apr 29 14:58:14 2022
TYPE : TOUR
DIMENSION : 17
TOUR_SECTION
1
17
16
15
14
13
12
11
8
9
10
4
3
2
5
7
6
=======
NAME : single.3257.tour
COMMENT : Length = 3257
COMMENT : Found by LKH [Keld Helsgaun] Thu May  5 16:45:59 2022
=======
NAME : single.100809.tour
COMMENT : Length = 100809
COMMENT : Found by LKH [Keld Helsgaun] Sun May 15 21:38:06 2022
>>>>>>> dev/Mads
TYPE : TOUR
DIMENSION : 6
TOUR_SECTION
1
6
2
3
4
5
>>>>>>> dev/Mads
-1
EOF
